Route #1: 1 44 5 29 6 19 8 51 40 21 36 1
Route #2: 1 22 10 34 4 23 12 14 1
Route #3: 1 53 31 35 42 47 52 43 25 48 26 33 1
Route #4: 1 30 11 16 24 50 37 2 18 1
Route #5: 1 17 7 15 28 13 3 1
Route #6: 1 41 9 20 32 49 38 27 46 1
Route #7: 1 54 45 39 1
cost 1366.4645276059202